9
1 4
2 3
3 2
4 5
5 4
6 7
7 5
8 9
27
0 1 35
1 0 35
0 2 13
2 0 13
0 3 74
3 0 74
0 4 93
4 0 93
0 5 65
5 0 65
0 6 11
6 0 11
0 7 92
7 0 92
0 8 60
8 0 60
1 2 79
1 7 16
2 3 90
2 4 53
2 8 48
3 4 59
3 5 44
3 7 99
4 8 81
5 7 99
7 8 40
